25 40
1 2 2
1 6 2
2 3 2
2 7 2
3 4 2
3 8 1
4 5 1
4 9 5
5 10 1
6 7 4
6 11 4
7 8 4
7 12 3
8 9 3
8 13 4
9 10 3
9 14 3
10 15 3
11 12 4
11 16 2
12 13 1
12 17 3
13 14 5
13 18 1
14 15 3
14 19 1
15 20 5
16 17 5
16 21 1
17 18 1
17 22 3
18 19 3
18 23 1
19 20 4
19 24 3
20 25 4
21 22 5
22 23 5
23 24 3
24 25 3
